(declare-const |main__x':52:60:63| Int)
(declare-const |main__y':53:61:64| Int)
(declare-const |K:58:59:62| Int)
(declare-const |havoc:0| Int)
(assert (and (< (+ (- |havoc:0|) -1000) 0) (< (+ |havoc:0| -1000000) 0)
               (or (not (<= (- |K:58:59:62|) 0))
                     (= (+ (* 2 |main__x':52:60:63|)
                             (- (* |K:58:59:62| |K:58:59:62|)) |K:58:59:62|
                             (* -2 (* |K:58:59:62| |havoc:0|)) 100) 0))
               (or (not (<= (- |K:58:59:62|) 0))
                     (= (+ |main__y':53:61:64| (- |K:58:59:62|) (- |havoc:0|)) 0))
               (or (and (= |K:58:59:62| 0)
                          (= (+ (- |main__y':53:61:64|) |havoc:0|) 0)
                          (= (+ (- |main__x':52:60:63|) -50) 0))
                     (and (<= (+ (- |K:58:59:62|) 1) 0)
                            (<= (+ (- |main__y':53:61:64|)
                                     |main__x':52:60:63| 2) 0)))
               (<= (- |K:58:59:62|) 0) (<= (- |main__x':52:60:63|) 0)
               (= (ite (< (- |main__y':53:61:64|) 0) 1 0) 0)))
(check-sat)
